
Gurobi 9.5.0 (win64) logging started Tue Dec  7 11:49:45 2021

Set parameter LogFile to value "../results/logs/log_2021_12_07_11_49.csv_20_21.log"
Set parameter Method to value 3
Gurobi Optimizer version 9.5.0 build v9.5.0rc5 (win64)
Thread count: 6 physical cores, 12 logical processors, using up to 12 threads
Optimize a model with 61 rows, 230 columns and 2647 nonzeros
Model fingerprint: 0xc7c0318a
Variable types: 115 continuous, 115 integer (115 binary)
Coefficient statistics:
  Matrix range     [1e+00, 2e+01]
  Objective range  [1e+00, 1e+00]
  Bounds range     [1e+00, 1e+00]
  RHS range        [1e+00, 2e+01]
Found heuristic solution: objective -0.0000000
Presolve removed 25 rows and 134 columns
Presolve time: 0.00s
Presolved: 36 rows, 96 columns, 703 nonzeros
Extracted 8 lazy constraints
Variable types: 76 continuous, 20 integer (20 binary)

Root relaxation: objective 1.772777e+01, 45 iterations, 0.00 seconds (0.00 work units)

    Nodes    |    Current Node    |     Objective Bounds      |     Work
 Expl Unexpl |  Obj  Depth IntInf | Incumbent    BestBd   Gap | It/Node Time

     0     0   17.72777    0    8   -0.00000   17.72777      -     -    0s
H    0     0                       3.0000000   17.72777   491%     -    0s
     0     0   12.19909    0   18    3.00000   12.19909   307%     -    0s
     0     0   12.08911    0   18    3.00000   12.08911   303%     -    0s
     0     0   11.63439    0   19    3.00000   11.63439   288%     -    0s
H    0     0                       9.0000000   11.56135  28.5%     -    0s
     0     0   11.47995    0   19    9.00000   11.47995  27.6%     -    0s
     0     0   11.45880    0   19    9.00000   11.45880  27.3%     -    0s
     0     0   11.15435    0   19    9.00000   11.15435  23.9%     -    0s
     0     2   11.13440    0   19    9.00000   11.13440  23.7%     -    0s

Cutting planes:
  Gomory: 1
  MIR: 20
  RLT: 2
  Lazy constraints: 8

Explored 38 nodes (681 simplex iterations) in 0.04 seconds (0.02 work units)
Thread count was 12 (of 12 available processors)

Solution count 3: 9 3 -0 

Optimal solution found (tolerance 1.00e-04)
Best objective 9.000000000000e+00, best bound 9.000000000000e+00, gap 0.0000%
